NAME: ftv33_10
TYPE: ATSP
COMMENT: Asymmetric TSP (Fischetti)
DIMENSION: 10
EDGE_WEIGHT_TYPE: EXPLICIT
EDGE_WEIGHT_FORMAT: FULL_MATRIX 
EDGE_WEIGHT_SECTION
     100000000        26          82          65         100         147         134          69         117          42
          66   100000000          56          39         109         156         140         135         183         108
          43          57   100000000          16          53         100          84         107         155          85
          27          41          62   100000000          97         144         131          96         144          69
         109         135         161         174   100000000          47          34          54         102          67
         157         171         114         130          60   100000000          40         114         162         127
         143         169         132         148          34          31   100000000          88         133         101 
          95         121         177         160          54         101          88   100000000          48          53
          79         105         161         144          91         138         125          37   100000000          37
          42          68         124         107          67         114         101          27          75   100000000
EOF
